decision_x1=[0,2];
decision_x2=[0,2];
decision_x3=[0,2];
decision_x4=[0,2];
decision_x5=[0,2];
random_y1=[0,2];
constraint_x4_x1=[
0,0,8.9|
0,1,3.8|
0,2,5.1|
1,0,2.7|
1,1,5.7|
1,2,6.5|
2,0,3.3|
2,1,3.2|
2,2,8.6|
];
constraint_x4_x2=[
0,0,5.9|
0,1,5.2|
0,2,9.4|
1,0,0.68|
1,1,6.8|
1,2,8.4|
2,0,5.6|
2,1,3.1|
2,2,7.2|
];
constraint_x5_x1=[
0,0,8.9|
0,1,1.7|
0,2,4|
1,0,8.6|
1,1,7.8|
1,2,6.8|
2,0,8.8|
2,1,4.8|
2,2,6.6|
];
constraint_x5_x3=[
0,0,2.8|
0,1,2.5|
0,2,6.5|
1,0,5.3|
1,1,7.9|
1,2,2.5|
2,0,3.8|
2,1,2.2|
2,2,8.8|
];
constraint_x5_x4=[
0,0,8.6|
0,1,6.2|
0,2,5.7|
1,0,4.3|
1,1,3|
1,2,1|
2,0,0.95|
2,1,4|
2,2,5.2|
];
constraint_x1_y1=[
0,0,1.2|
0,1,7.5|
0,2,6.7|
1,0,1.4|
1,1,5.1|
1,2,3|
2,0,9.5|
2,1,9.3|
2,2,7.6|
];
initial_distribution_y1=[0.29,0.33,0.39];
transition_y1=[
0.45,0.13,0.42|
0.45,0.12,0.43|
0.22,0.07,0.71|
];
